FILENAME:   ../instances_new/flowersnark/flowersnark17_3.cip
SETTINGS:   settings_final_nosymretope_relabel_min
TIMELIMIT:  7200
OUTPUTNAME: final_flowersnark__settings_final_nosymretope_relabel_min__3__
BINNAME:    bin/sbcs.linux.x86_64.gnu.opt.cpx
BASENAME:   flowersnark17_3.cip
SEED:       3
@01 ../instances_new/flowersnark/flowersnark17_3.cip ===========
@02 flowersnark17_3.cip
@03 1668003450
SCIP version 8.0.2 [precision: 8 byte] [memory: block] [mode: optimized] [LP solver: CPLEX 20.1.0.0] [GitHash: 5f0473c]
Copyright (C) 2002-2022 Konrad-Zuse-Zentrum fuer Informationstechnik Berlin (ZIB)

Symretope propagation methods - (c) Jasper van Doornmalen, Christopher Hojny.
[GitHash: 2fd0484]

reading parameter file <../settings/settings_final_nosymretope_relabel_min.set> ...

Changed settings:
limits/time = 7200
misc/usesymmetry = 1
randomization/randomseedshift = 3
constraints/orbisack/sepafreq = -1
constraints/symresack/sepafreq = -1
propagating/symmetry/addsymresacks = TRUE
propagating/symmetry/detectsubgroups = FALSE
propagating/symmetry/usesymretopes = FALSE
propagating/symmetry/relabelsymretopes = 2
propagating/symmetry/ofsymcomptiming = 0
constraints/symretope/sepafreq = -1
constraints/symretope/peek = FALSE


solving problem ...

original problem has 306 variables (306 bin, 0 int, 0 impl, 0 cont) and 306 constraints
presolving:
(round 1, exhaustive) 0 del vars, 0 del conss, 0 add conss, 0 chg bounds, 0 chg sides, 0 chg coeffs, 306 upgd conss, 0 impls, 306 clqs
   (0.0s) probing: 51/306 (16.7%) - 0 fixings, 0 aggregations, 0 implications, 0 bound changes
   (0.0s) probing aborted: 50/50 successive totally useless probings
   (0.0s) symmetry computation started: requiring (bin +, int +, cont +), (fixed: bin -, int -, cont -)
   (0.0s) symmetry computation finished: 5 generators found (max: 1500, log10 of symmetry group size: 2.6)
(round 2, exhaustive) 7 del vars, 0 del conss, 5 add conss, 0 chg bounds, 0 chg sides, 0 chg coeffs, 306 upgd conss, 0 impls, 303 clqs
(round 3, fast)       16 del vars, 7 del conss, 5 add conss, 0 chg bounds, 0 chg sides, 0 chg coeffs, 306 upgd conss, 0 impls, 299 clqs
(round 4, medium)     17 del vars, 7 del conss, 5 add conss, 0 chg bounds, 0 chg sides, 0 chg coeffs, 306 upgd conss, 0 impls, 299 clqs
(round 5, fast)       18 del vars, 8 del conss, 5 add conss, 0 chg bounds, 0 chg sides, 0 chg coeffs, 306 upgd conss, 0 impls, 298 clqs
   (0.0s) probing cycle finished: starting next cycle
(round 6, exhaustive) 25 del vars, 8 del conss, 5 add conss, 0 chg bounds, 0 chg sides, 0 chg coeffs, 306 upgd conss, 0 impls, 417 clqs
(round 7, fast)       25 del vars, 18 del conss, 5 add conss, 0 chg bounds, 1 chg sides, 0 chg coeffs, 306 upgd conss, 0 impls, 417 clqs
   (0.0s) probing: 179/289 (61.9%) - 0 fixings, 7 aggregations, 163 implications, 0 bound changes
   (0.0s) probing aborted: 50/50 successive totally useless probings
presolving (8 rounds: 8 fast, 5 medium, 4 exhaustive):
 25 deleted vars, 18 deleted constraints, 5 added constraints, 0 tightened bounds, 0 added holes, 1 changed sides, 0 changed coefficients
 0 implications, 431 cliques
presolved problem has 286 variables (286 bin, 0 int, 0 impl, 0 cont) and 293 constraints
    288 constraints of type <setppc>
      2 constraints of type <orbisack>
      2 constraints of type <orbitope>
      1 constraints of type <symresack>
transformed objective value is always integral (scale: 1)
Presolving Time: 0.02

 time | node  | left  |LP iter|LP it/n|mem/heur|mdpt |vars |cons |rows |cuts |sepa|confs|strbr|  dualbound   | primalbound  |  gap   | compl. 
  0.0s|     1 |     0 |   224 |     - |  4574k |   0 | 286 | 348 | 289 |   0 |  0 |  54 |   0 | 0.000000e+00 |      --      |    Inf | unknown
  0.1s|     1 |     0 |   540 |     - |  4834k |   0 | 286 | 549 | 290 |   3 |  1 |  55 |   0 | 0.000000e+00 |      --      |    Inf | unknown
  0.1s|     1 |     0 |   562 |     - |  6246k |   0 | 286 | 548 | 294 |   7 |  2 |  56 |   0 | 0.000000e+00 |      --      |    Inf | unknown
  0.2s|     1 |     0 |   647 |     - |  6710k |   0 | 286 | 551 | 298 |  11 |  3 |  59 |   0 | 0.000000e+00 |      --      |    Inf | unknown
  0.2s|     1 |     0 |   711 |     - |  7944k |   0 | 286 | 552 | 301 |  14 |  4 |  60 |   0 | 0.000000e+00 |      --      |    Inf | unknown
  0.2s|     1 |     0 |   780 |     - |  8336k |   0 | 286 | 553 | 304 |  17 |  5 |  61 |   0 | 0.000000e+00 |      --      |    Inf | unknown
  0.2s|     1 |     0 |   865 |     - |  9661k |   0 | 286 | 554 | 307 |  20 |  6 |  62 |   0 | 0.000000e+00 |      --      |    Inf | unknown
  0.3s|     1 |     0 |   969 |     - |    12M |   0 | 286 | 555 | 311 |  24 |  7 |  63 |   0 | 0.000000e+00 |      --      |    Inf | unknown
  0.3s|     1 |     0 |  1095 |     - |    15M |   0 | 286 | 556 | 315 |  28 |  8 |  64 |   0 | 0.000000e+00 |      --      |    Inf | unknown
  0.3s|     1 |     0 |  1183 |     - |    16M |   0 | 286 | 557 | 317 |  30 |  9 |  65 |   0 | 0.000000e+00 |      --      |    Inf | unknown
  0.4s|     1 |     0 |  1312 |     - |    16M |   0 | 286 | 560 | 318 |  32 | 10 |  68 |   0 | 0.000000e+00 |      --      |    Inf | unknown
  0.4s|     1 |     0 |  1389 |     - |    16M |   0 | 286 | 562 | 320 |  34 | 11 |  70 |   0 | 0.000000e+00 |      --      |    Inf | unknown
  0.5s|     1 |     2 |  1609 |     - |    16M |   0 | 286 | 572 | 320 |  34 | 11 |  80 |  10 | 0.000000e+00 |      --      |    Inf | unknown
  1.7s|   100 |    40 | 11685 | 104.0 |    21M |  13 | 286 | 868 | 296 |  79 |  0 | 376 |  10 | 0.000000e+00 |      --      |    Inf |   8.08%
  2.3s|   200 |    50 | 15938 |  73.1 |    23M |  15 | 286 |1116 |   0 | 128 |  0 | 626 |  10 | 0.000000e+00 |      --      |    Inf |  14.58%
 time | node  | left  |LP iter|LP it/n|mem/heur|mdpt |vars |cons |rows |cuts |sepa|confs|strbr|  dualbound   | primalbound  |  gap   | compl. 
  2.6s|   300 |    40 | 20232 |  63.0 |    25M |  15 | 286 |1354 | 299 | 169 |  1 | 866 |  10 | 0.000000e+00 |      --      |    Inf |  15.55%
  2.9s|   400 |    49 | 24011 |  56.7 |    26M |  16 | 286 |1561 | 299 | 211 |  1 |1074 |  10 | 0.000000e+00 |      --      |    Inf |  16.52%
  3.1s|   500 |    43 | 27604 |  52.5 |    25M |  16 | 286 |1730 | 299 | 238 |  0 |1248 |  10 | 0.000000e+00 |      --      |    Inf |  17.08%
  3.4s|   600 |    54 | 31097 |  49.6 |    26M |  17 | 286 |2051 | 300 | 287 |  1 |1587 |  10 | 0.000000e+00 |      --      |    Inf |  18.73%
  3.7s|   700 |    39 | 34917 |  48.0 |    26M |  17 | 286 |2323 | 297 | 298 |  1 |1875 |  10 | 0.000000e+00 |      --      |    Inf |  19.09%
  4.0s|   800 |    39 | 38456 |  46.4 |    26M |  18 | 286 |2507 | 300 | 346 |  0 |2107 |  10 | 0.000000e+00 |      --      |    Inf |  20.30%
  4.6s|   900 |    33 | 42945 |  46.2 |    26M |  18 | 286 |2652 | 298 | 420 |  0 |2347 |  10 | 0.000000e+00 |      --      |    Inf |  22.91%
  5.2s|  1000 |    36 | 48482 |  47.1 |    26M |  18 | 286 |2755 | 296 | 451 |  1 |2532 |  10 | 0.000000e+00 |      --      |    Inf |  28.61%
  5.9s|  1100 |    38 | 54334 |  48.2 |    27M |  18 | 286 |2843 |   0 | 489 |  0 |2725 |  10 | 0.000000e+00 |      --      |    Inf |  38.15%
  6.4s|  1200 |    35 | 59353 |  48.3 |    27M |  18 | 286 |2811 | 299 | 533 |  0 |2904 |  10 | 0.000000e+00 |      --      |    Inf |  45.01%
  6.7s|  1300 |    33 | 62809 |  47.3 |    27M |  18 | 286 |2700 |   0 | 574 |  0 |3076 |  10 | 0.000000e+00 |      --      |    Inf |  46.48%
  7.3s|  1400 |    34 | 67397 |  47.2 |    27M |  20 | 286 |2619 | 303 | 590 |  3 |3261 |  10 | 0.000000e+00 |      --      |    Inf |  50.07%
  7.9s|  1500 |    33 | 74474 |  48.8 |    28M |  20 | 286 |2673 | 299 | 632 |  1 |3455 |  10 | 0.000000e+00 |      --      |    Inf |  51.25%
  8.3s|  1600 |    37 | 77976 |  47.9 |    28M |  20 | 286 |2685 | 299 | 661 |  0 |3641 |  10 | 0.000000e+00 |      --      |    Inf |  51.81%
  8.6s|  1700 |    40 | 81589 |  47.2 |    28M |  20 | 286 |2710 | 303 | 701 |  1 |3805 |  10 | 0.000000e+00 |      --      |    Inf |  52.25%
 time | node  | left  |LP iter|LP it/n|mem/heur|mdpt |vars |cons |rows |cuts |sepa|confs|strbr|  dualbound   | primalbound  |  gap   | compl. 
  8.9s|  1800 |    34 | 85031 |  46.5 |    28M |  20 | 286 |2783 | 299 | 736 |  1 |3976 |  10 | 0.000000e+00 |      --      |    Inf |  52.94%
  9.5s|  1900 |    36 | 89142 |  46.2 |    28M |  20 | 286 |2816 | 298 | 809 |  0 |4213 |  10 | 0.000000e+00 |      --      |    Inf |  54.52%
  9.7s|  2000 |    31 | 92083 |  45.4 |    28M |  20 | 286 |2953 | 298 | 837 |  1 |4411 |  10 | 0.000000e+00 |      --      |    Inf |  55.57%
 10.1s|  2100 |    26 | 96888 |  45.5 |    28M |  20 | 286 |2985 | 299 | 907 |  1 |4582 |  10 | 0.000000e+00 |      --      |    Inf |  58.96%
 10.5s|  2200 |    22 |100941 |  45.3 |    28M |  20 | 286 |3045 | 299 | 966 |  0 |4758 |  10 | 0.000000e+00 |      --      |    Inf |  59.92%
 10.8s|  2300 |    19 |104712 |  44.9 |    29M |  20 | 286 |3166 | 300 |1007 |  1 |4985 |  10 | 0.000000e+00 |      --      |    Inf |  60.62%
 11.1s|  2400 |    23 |108111 |  44.5 |    29M |  20 | 286 |3240 | 297 |1043 |  0 |5183 |  10 | 0.000000e+00 |      --      |    Inf |  61.51%
 11.8s|  2500 |    23 |111966 |  44.2 |    29M |  20 | 286 |3177 | 297 |1092 |  0 |5338 |  10 | 0.000000e+00 |      --      |    Inf |  70.93%
 12.7s|  2600 |    22 |115427 |  43.9 |    29M |  20 | 286 |3169 | 299 |1134 |  1 |5488 |  10 | 0.000000e+00 |      --      |    Inf |  85.42%
 13.1s|  2700 |    21 |119708 |  43.8 |    29M |  20 | 286 |3205 | 298 |1190 |  1 |5648 |  10 | 0.000000e+00 |      --      |    Inf |  86.95%
 13.3s|  2800 |    20 |123469 |  43.6 |    29M |  20 | 286 |3289 | 300 |1214 |  1 |5867 |  10 | 0.000000e+00 |      --      |    Inf |  87.46%
 13.8s|  2900 |    13 |128583 |  43.9 |    30M |  20 | 286 |3464 | 297 |1276 |  1 |6140 |  10 | 0.000000e+00 |      --      |    Inf |  88.78%
 14.1s|  3000 |    13 |133822 |  44.2 |    30M |  20 | 286 |3533 | 297 |1306 |  1 |6363 |  10 | 0.000000e+00 |      --      |    Inf |  89.42%
 14.3s|  3100 |    16 |137220 |  43.8 |    30M |  20 | 286 |3601 | 296 |1313 |  1 |6526 |  10 | 0.000000e+00 |      --      |    Inf |  89.76%
 14.6s|  3200 |     7 |140795 |  43.6 |    30M |  20 | 286 |3727 | 298 |1338 |  0 |6740 |  10 | 0.000000e+00 |      --      |    Inf |  90.20%
 time | node  | left  |LP iter|LP it/n|mem/heur|mdpt |vars |cons |rows |cuts |sepa|confs|strbr|  dualbound   | primalbound  |  gap   | compl. 
 15.1s|  3300 |     8 |144783 |  43.5 |    30M |  20 | 286 |3769 | 296 |1365 |  1 |6957 |  10 | 0.000000e+00 |      --      |    Inf |  91.35%
 15.3s|  3400 |     6 |147497 |  43.0 |    30M |  20 | 286 |3860 | 298 |1399 |  0 |7171 |  10 | 0.000000e+00 |      --      |    Inf |  91.93%
 15.7s|  3500 |     8 |153049 |  43.3 |    30M |  20 | 286 |3938 | 301 |1426 |  1 |7358 |  10 | 0.000000e+00 |      --      |    Inf |  92.46%
 16.1s|  3600 |     4 |156227 |  43.0 |    30M |  20 | 286 |3931 | 296 |1457 |  1 |7589 |  10 | 0.000000e+00 |      --      |    Inf |  92.97%
 16.7s|  3700 |    11 |159644 |  42.8 |    30M |  20 | 286 |3928 | 299 |1521 |  1 |7738 |  10 | 0.000000e+00 |      --      |    Inf |  94.93%
 17.1s|  3800 |     6 |165129 |  43.1 |    30M |  20 | 286 |3902 | 300 |1606 |  0 |7885 |  10 | 0.000000e+00 |      --      |    Inf |  96.48%
 17.3s|  3900 |     2 |168931 |  43.0 |    30M |  20 | 286 |3956 | 298 |1621 |  0 |8041 |  10 | 0.000000e+00 |      --      |    Inf |  96.87%
 17.7s|  4000 |    20 |174698 |  43.3 |    31M |  20 | 286 |3868 |   0 |1667 |  0 |8227 |  10 | 0.000000e+00 |      --      |    Inf |  97.34%
 17.9s|  4100 |    20 |177530 |  43.0 |    31M |  20 | 286 |3883 | 299 |1687 |  1 |8423 |  10 | 0.000000e+00 |      --      |    Inf |  97.78%
 18.3s|  4200 |    10 |180305 |  42.6 |    31M |  20 | 286 |3952 | 303 |1687 |  0 |8625 |  10 | 0.000000e+00 |      --      |    Inf |  97.85%
 18.5s|  4300 |    10 |185019 |  42.7 |    31M |  20 | 286 |4024 | 297 |1691 |  1 |8837 |  10 | 0.000000e+00 |      --      |    Inf |  98.00%
 18.8s|  4400 |     7 |189668 |  42.8 |    31M |  20 | 286 |3994 | 301 |1713 |  0 |8940 |  10 | 0.000000e+00 |      --      |    Inf |  98.21%
 19.2s|  4500 |    12 |194277 |  42.9 |    31M |  20 | 286 |4039 | 299 |1785 |  0 |9135 |  10 | 0.000000e+00 |      --      |    Inf |  98.93%
 19.4s|  4600 |     3 |197548 |  42.7 |    31M |  20 | 286 |4121 | 299 |1792 |  0 |9320 |  10 | 0.000000e+00 |      --      |    Inf |  99.17%
 19.7s|  4700 |     3 |203110 |  42.9 |    31M |  20 | 286 |4149 | 300 |1858 |  0 |9479 |  10 | 0.000000e+00 |      --      |    Inf |  99.63%

SCIP Status        : problem is solved [infeasible]
Solving Time (sec) : 19.99
Solving Nodes      : 4796
Primal Bound       : +1.00000000000000e+20 (0 solutions)
Dual Bound         : +1.00000000000000e+20
Gap                : 0.00 %
SCIP Status        : problem is solved [infeasible]
Total Time         :      19.99
  solving          :      19.99
  presolving       :       0.02 (included in solving)
  reading          :       0.00
  copying          :       0.33 (38 #copies) (minimal 0.00, maximal 0.01, average 0.01)
Original Problem   :
  Problem name     : model
  Variables        : 306 (306 binary, 0 integer, 0 implicit integer, 0 continuous)
  Constraints      : 306 initial, 306 maximal
  Objective        : minimize, 0 non-zeros (abs.min = 1e+20, abs.max = -1e+20)
Presolved Problem  :
  Problem name     : t_model
  Variables        : 286 (286 binary, 0 integer, 0 implicit integer, 0 continuous)
  Constraints      : 293 initial, 4191 maximal
  Objective        : minimize, 0 non-zeros (abs.min = 1e+20, abs.max = -1e+20)
  Nonzeros         : 2075 constraint, 1080 clique table
Presolvers         :   ExecTime  SetupTime  Calls  FixedVars   AggrVars   ChgTypes  ChgBounds   AddHoles    DelCons    AddCons   ChgSides   ChgCoefs
  boundshift       :       0.00       0.00      0          0          0          0          0          0          0          0          0          0
  convertinttobin  :       0.00       0.00      0          0          0          0          0          0          0          0          0          0
  domcol           :       0.00       0.00      3          0          0          0          0          0          0          0          0          0
  dualagg          :       0.00       0.00      0          0          0          0          0          0          0          0          0          0
  dualcomp         :       0.00       0.00      0          0          0          0          0          0          0          0          0          0
  dualinfer        :       0.00       0.00      0          0          0          0          0          0          0          0          0          0
  dualsparsify     :       0.00       0.00      1          0          0          0          0          0          0          0          0          0
  gateextraction   :       0.00       0.00      0          0          0          0          0          0          0          0          0          0
  implics          :       0.00       0.00      5          0          0          0          0          0          0          0          0          0
  inttobinary      :       0.00       0.00      0          0          0          0          0          0          0          0          0          0
  qpkktref         :       0.00       0.00      0          0          0          0          0          0          0          0          0          0
  redvub           :       0.00       0.00      0          0          0          0          0          0          0          0          0          0
  sparsify         :       0.00       0.00      1          0          0          0          0          0          0          0          0          0
  stuffing         :       0.00       0.00      0          0          0          0          0          0          0          0          0          0
  trivial          :       0.00       0.00      8          5          0          0          0          0          0          0          0          0
  tworowbnd        :       0.00       0.00      0          0          0          0          0          0          0          0          0          0
  dualfix          :       0.00       0.00      8          0          0          0          0          0          0          0          0          0
  genvbounds       :       0.00       0.00      0          0          0          0          0          0          0          0          0          0
  probing          :       0.02       0.00      3          0          7          0          0          0          0          0          0          0
  pseudoobj        :       0.00       0.00      0          0          0          0          0          0          0          0          0          0
  symmetry         :       0.00       0.00      1          2          0          0          0          0          0          5          0          0
  vbounds          :       0.00       0.00      2          0          0          0          0          0          0          0          0          0
  knapsack         :       0.00       0.00      0          0          0          0          0          0          0          0          0          0
  setppc           :       0.00       0.00     14          0          5          0          0          0         18          0          1          0
  linear           :       0.00       0.00      2          0          0          0          0          0          0          0          0          0
  orbisack         :       0.00       0.00      2          0          0          0          0          0          0          0          0          0
  orbitope         :       0.00       0.00      3          1          0          0          0          0          0          0          0          0
  symresack        :       0.00       0.00      2          0          0          0          0          0          0          0          0          0
  logicor          :       0.00       0.00      0          0          0          0          0          0          0          0          0          0
  benders          :       0.00       0.00      0          0          0          0          0          0          0          0          0          0
  components       :       0.00       0.00      1          0          0          0          0          0          0          0          0          0
  root node        :          -          -      -          6          -          -          6          -          -          -          -          -
Constraints        :     Number  MaxNumber  #Separate #Propagate    #EnfoLP    #EnfoRelax  #EnfoPS    #Check   #ResProp    Cutoffs    DomReds       Cuts    Applied      Conss   Children
  benderslp        :          0          0          0          0       2588          0          0         11          0          0          0          0          0          0          0
  integral         :          0          0          0          0       2588          0          0         11          0          0          0          0          0          0       5176
  knapsack         :          0+        80          0      39026          0          0          0          0       9359        261      11589          0          0          0          0
  setppc           :        288+       302         12      40515          0          0          0          7     149017        796      95252          0          0          0          0
  linear           :          0+       215         11      38247          0          0          0          0       2816         88       3774          0          0          0          0
  orbisack         :          2          2          0        105          0          0          0          0        254          7        122          0          0          0          0
  orbitope         :          2          2          0      39524          0          0          0          0       1277          0        420          0          0          0          0
  symresack        :          1          1          0       7788          0          0          0          0        250         17        136          0          0          0          0
  logicor          :          0+      3771         12      26912          0          0          0          0      21784        226      12169          0          0          0          0
  benders          :          0          0          0          0          0          0          0          0          0          0          0          0          0          0          0
  countsols        :          0          0          0          0          0          0          0          0          0          0          0          0          0          0          0
  components       :          0          0          0          0          0          0          0          0          0          0          0          0          0          0          0
Constraint Timings :  TotalTime  SetupTime   Separate  Propagate     EnfoLP     EnfoPS     EnfoRelax   Check    ResProp    SB-Prop
  benderslp        :       0.00       0.00       0.00       0.00       0.00       0.00       0.00       0.00       0.00       0.00
  integral         :       0.18       0.00       0.00       0.00       0.18       0.00       0.00       0.00       0.00       0.00
  knapsack         :       0.24       0.00       0.00       0.21       0.00       0.00       0.00       0.00       0.02       0.00
  setppc           :       0.67       0.00       0.00       0.61       0.00       0.00       0.00       0.00       0.06       0.00
  linear           :       0.13       0.00       0.00       0.12       0.00       0.00       0.00       0.00       0.01       0.00
  orbisack         :       0.00       0.00       0.00       0.00       0.00       0.00       0.00       0.00       0.00       0.00
  orbitope         :       0.13       0.00       0.00       0.11       0.00       0.00       0.00       0.00       0.02       0.00
  symresack        :       0.00       0.00       0.00       0.00       0.00       0.00       0.00       0.00       0.00       0.00
  logicor          :       0.60       0.00       0.00       0.58       0.00       0.00       0.00       0.00       0.02       0.00
  benders          :       0.00       0.00       0.00       0.00       0.00       0.00       0.00       0.00       0.00       0.00
  countsols        :       0.00       0.00       0.00       0.00       0.00       0.00       0.00       0.00       0.00       0.00
  components       :       0.00       0.00       0.00       0.00       0.00       0.00       0.00       0.00       0.00       0.00
Propagators        : #Propagate   #ResProp    Cutoffs    DomReds
  dualfix          :          2          0          0          0
  genvbounds       :          0          0          0          0
  nlobbt           :          0          0          0          0
  obbt             :          0          0          0          0
  probing          :          0          0          0          0
  pseudoobj        :          0          0          0          0
  redcost          :          0          0          0          0
  rootredcost      :          0          0          0          0
  symmetry         :          0          0          0          0
  vbounds          :      29940          0          0          0
Propagator Timings :  TotalTime  SetupTime   Presolve  Propagate    ResProp    SB-Prop
  dualfix          :       0.00       0.00       0.00       0.00       0.00       0.00
  genvbounds       :       0.00       0.00       0.00       0.00       0.00       0.00
  nlobbt           :       0.00       0.00       0.00       0.00       0.00       0.00
  obbt             :       0.00       0.00       0.00       0.00       0.00       0.00
  probing          :       0.02       0.00       0.02       0.00       0.00       0.00
  pseudoobj        :       0.00       0.00       0.00       0.00       0.00       0.00
  redcost          :       0.00       0.00       0.00       0.00       0.00       0.00
  rootredcost      :       0.00       0.00       0.00       0.00       0.00       0.00
  symmetry         :       0.01       0.00       0.00       0.00       0.00       0.00
  vbounds          :       0.06       0.00       0.00       0.06       0.00       0.00
Orbital fixing     :
  vars fixed to 0  :          0
  vars fixed to 1  :          0
Conflict Analysis  :       Time      Calls    Success    DomReds  Conflicts   Literals    Reconvs ReconvLits   Dualrays   Nonzeros   LP Iters   (pool size: [10000,10000])
  propagation      :       0.14       1363       1221          -       7662       26.4         72       12.9          -          -          -
  infeasible LP    :       0.41       1652       1354          -       9453       20.6         39        9.6        486       29.7          0
  bound exceed. LP :       0.00          0          0          -          0        0.0          0        0.0          0        0.0          0
  strong branching :       0.00          0          0          -          0        0.0          0        0.0          -          -          0
  pseudo solution  :       0.00          0          0          -          0        0.0          0        0.0          -          -          -
  applied globally :       0.06          -          -          0       9076       16.8          -          -        437          -          -
  applied locally  :          -          -          -          0         73       40.2          -          -         49          -          -
Separators         :   ExecTime  SetupTime      Calls  RootCalls    Cutoffs    DomReds  FoundCuts ViaPoolAdd  DirectAdd    Applied ViaPoolApp  DirectApp      Conss
  cut pool         :       1.38          -       1331         21          -          -      19693       7963          -          -          -          -          -    (maximal pool size:       3357)
  aggregation      :       0.36       0.00        724         11          0          0          0          0          0          0          0          0          0
  > cmir           :          -          -          -          -          -          -          -          0          0          0          0          0          -
  > flowcover      :          -          -          -          -          -          -          -          0          0          0          0          0          -
  > knapsackcover  :          -          -          -          -          -          -          -          0          0          0          0          0          -
  cgmip            :       0.00       0.00          0          0          0          0          0          0          0          0          0          0          0
  clique           :       0.00       0.00         11         11          0          0          6         11          0          2          2          0          0
  closecuts        :       0.00       0.00          0          0          0          0          0          0          0          0          0          0          0
  convexproj       :       0.00       0.00          0          0          0          0          0          0          0          0          0          0          0
  disjunctive      :       0.00       0.00          0          0          0          0          0          0          0          0          0          0          0
  eccuts           :       0.00       0.00          0          0          0          0          0          0          0          0          0          0          0
  gauge            :       0.00       0.00          0          0          0          0          0          0          0          0          0          0          0
  gomory           :       2.28       0.00        723         10          0          0      28935       7651       9416       1007        772        235          0
  > gomorymi       :          -          -          -          -          -          -          -       1075       4708        202         56        146          -
  > strongcg       :          -          -          -          -          -          -          -       6576       4708        805        716         89          -
  impliedbounds    :       0.02       0.00        724         11          0          4         51        109          0         94         94          0          0
  interminor       :       0.00       0.00          0          0          0          0          0          0          0          0          0          0          0
  intobj           :       0.00       0.00          0          0          0          0          0          0          0          0          0          0          0
  mcf              :       0.00       0.00          1          1          0          0          0          0          0          0          0          0          0
  minor            :       0.00       0.00          0          0          0          0          0          0          0          0          0          0          0
  mixing           :       0.00       0.00          0          0          0          0          0          0          0          0          0          0          0
  oddcycle         :       0.00       0.00          0          0          0          0          0          0          0          0          0          0          0
  rapidlearning    :       4.62       0.00         37          1          0       3238          0          0          0          0          0          0        490
  rlt              :       0.00       0.00         10         10          0          0          0          0          0          0          0          0          0
  zerohalf         :       0.35       0.00        724         11          0          0       1090        192        973        773        114        659          0
Cutselectors       :   ExecTime  SetupTime      Calls  RootCalls   Selected     Forced   Filtered  RootSelec   RootForc   RootFilt 
  hybrid           :       0.02       0.00        720         11       1876          0      16476         34          0        656
Pricers            :   ExecTime  SetupTime      Calls       Vars
  problem variables:       0.00          -          0          0
Branching Rules    :   ExecTime  SetupTime   BranchLP  BranchExt   BranchPS    Cutoffs    DomReds       Cuts      Conss   Children
  allfullstrong    :       0.00       0.00          0          0          0          0          0          0          0          0
  cloud            :       0.00       0.00          0          0          0          0          0          0          0          0
  distribution     :       0.00       0.00          0          0          0          0          0          0          0          0
  fullstrong       :       0.00       0.00          0          0          0          0          0          0          0          0
  inference        :       0.00       0.00          0          0          0          0          0          0          0          0
  leastinf         :       0.00       0.00          0          0          0          0          0          0          0          0
  lookahead        :       0.00       0.00          0          0          0          0          0          0          0          0
  mostinf          :       0.00       0.00          0          0          0          0          0          0          0          0
  multaggr         :       0.00       0.00          0          0          0          0          0          0          0          0
  nodereopt        :       0.00       0.00          0          0          0          0          0          0          0          0
  pscost           :       0.00       0.00          0          0          0          0          0          0          0          0
  random           :       0.00       0.00          0          0          0          0          0          0          0          0
  relpscost        :       0.17       0.00       2588          0          0          0          0          0          0       5176
  vanillafullstrong:       0.00       0.00          0          0          0          0          0          0          0          0
Primal Heuristics  :   ExecTime  SetupTime      Calls      Found       Best
  LP solutions     :       0.00          -          -          0          0
  relax solutions  :       0.00          -          -          0          0
  pseudo solutions :       0.00          -          -          0          0
  strong branching :       0.00          -          -          0          0
  actconsdiving    :       0.00       0.00          0          0          0
  adaptivediving   :       0.16       0.00         46          0          0
  alns             :       0.01       0.00          3          0          0
  bound            :       0.00       0.00          0          0          0
  clique           :       0.00       0.00          1          0          0
  coefdiving       :       0.00       0.00          0          0          0
  completesol      :       0.00       0.00          0          0          0
  conflictdiving   :       0.05       0.00         23          0          0
  crossover        :       0.00       0.00          0          0          0
  dins             :       0.00       0.00          0          0          0
  distributiondivin:       0.12       0.00         23          0          0
  dps              :       0.00       0.00          0          0          0
  dualval          :       0.00       0.00          0          0          0
  farkasdiving     :       0.00       0.00          0          0          0
  feaspump         :       0.04       0.00          4          0          0
  fixandinfer      :       0.00       0.00          0          0          0
  fracdiving       :       0.05       0.00         24          0          0
  gins             :       0.00       0.00          0          0          0
  guideddiving     :       0.00       0.00          0          0          0
  indicator        :       0.00       0.00          0          0          0
  intdiving        :       0.00       0.00          0          0          0
  intshifting      :       0.00       0.00          0          0          0
  linesearchdiving :       0.05       0.00         23          0          0
  localbranching   :       0.00       0.00          0          0          0
  locks            :       0.00       0.00          1          0          0
  lpface           :       0.00       0.00          0          0          0
  mpec             :       0.00       0.00          0          0          0
  multistart       :       0.00       0.00          0          0          0
  mutation         :       0.00       0.00          0          0          0
  nlpdiving        :       0.00       0.00          0          0          0
  objpscostdiving  :       0.11       0.00          8          0          0
  octane           :       0.00       0.00          0          0          0
  ofins            :       0.00       0.00          0          0          0
  oneopt           :       0.00       0.00          0          0          0
  padm             :       0.00       0.00          0          0          0
  proximity        :       0.00       0.00          0          0          0
  pscostdiving     :       0.05       0.00         24          0          0
  randrounding     :       0.01       0.00         16          0          0
  rens             :       0.00       0.00          0          0          0
  reoptsols        :       0.00       0.00          0          0          0
  repair           :       0.00       0.00          0          0          0
  rins             :       0.00       0.00          0          0          0
  rootsoldiving    :       0.11       0.00         11          0          0
  rounding         :       0.04       0.00        747          0          0
  shiftandpropagate:       0.00       0.00          1          0          0
  shifting         :       0.04       0.00        375          0          0
  simplerounding   :       0.00       0.00          0          0          0
  subnlp           :       0.00       0.00          0          0          0
  trivial          :       0.00       0.00          2          0          0
  trivialnegation  :       0.00       0.00          0          0          0
  trustregion      :       0.00       0.00          0          0          0
  trysol           :       0.00       0.00          0          0          0
  twoopt           :       0.00       0.00          0          0          0
  undercover       :       0.00       0.00          0          0          0
  vbounds          :       0.00       0.00          1          0          0
  veclendiving     :       0.04       0.00         24          0          0
  zeroobj          :       0.00       0.00          0          0          0
  zirounding       :       0.01       0.00       1000          0          0
  other solutions  :          -          -          -          0          -
LP                 :       Time      Calls Iterations  Iter/call   Iter/sec  Time-0-It Calls-0-It    ItLimit
  primal LP        :       0.26        281          0       0.00       0.00       0.26        281
  dual LP          :       5.84       4924     196927      40.25   33695.53       0.01         32
  lex dual LP      :       0.00          0          0       0.00          -
  barrier LP       :       0.00          0          0       0.00          -       0.00          0
  resolve instable :       0.00          0          0       0.00          -
  diving/probing LP:       0.38        319      10522      32.98   27597.10
  strong branching :       0.08         10       2483     248.30   30347.85          -          -          0
    (at root node) :          -         10       2483     248.30          -
  conflict analysis:       0.00          0          0       0.00          -
B&B Tree           :
  number of runs   :          1
  nodes            :       4796 (2588 internal, 2208 leaves)
  feasible leaves  :          0
  infeas. leaves   :       2208
  objective leaves :          0
  nodes (total)    :       4796 (2588 internal, 2208 leaves)
  nodes left       :          0
  max depth        :         20
  max depth (total):         20
  backtracks       :       1566 (32.7%)
  early backtracks :          0 (0.0%)
  nodes exc. ref.  :          0 (0.0%)
  delayed cutoffs  :        381
  repropagations   :       2282 (33969 domain reductions, 339 cutoffs)
  avg switch length:       3.50
  switching time   :       1.03
Root Node          :
  First LP value   : +0.00000000000000e+00
  First LP Iters   :        224 (50805.17 Iter/sec)
  First LP Time    :       0.00
  Final Dual Bound : +0.00000000000000e+00
  Final Root Iters :       1389
  Root LP Estimate : +8.24431043756586e-03
Solution           :
  Solutions found  :          0 (0 improvements)
  Primal Bound     : infeasible
  Dual Bound       :          -
  Gap              :       0.00 %
Integrals          :      Total       Avg%
  primal-dual      :          -          - (problem infeasible)
  primal-ref       :          -          - (problem infeasible)
  dual-ref         :          -          - (problem infeasible)
written solution information to file <results/final_flowersnark__settings_final_nosymretope_relabel_min__3__flowersnark17_3.cip.sol>
@04 1668003470
